c b=8,c=769
p cnf 26 232
8 -16 0
1 3 5 7 8 -24 0
2 4 6 8 -25 0
-8 16 0
1 3 5 7 -8 24 0
1 3 5 7 -8 25 0
7 -15 0
2 4 6 7 -23 0
1 3 5 7 -26 0
2 4 6 -7 8 24 0
8 -26 0
2 4 6 -7 -8 -24 0
-7 -8 26 0
-7 15 0
2 4 6 -7 23 0
2 4 6 -7 -25 0
6 -14 0
1 3 5 6 -22 0
1 3 5 -6 8 -24 0
1 3 5 7 8 -25 0
1 3 5 -6 -8 24 0
1 3 5 -6 7 23 0
-6 -7 8 25 0
1 3 5 -7 -8 -25 0
1 3 5 -6 -7 -23 0
-6 14 0
1 3 5 -6 22 0
5 -13 0
2 4 5 -21 0
2 4 6 7 8 -24 0
2 4 6 7 -8 24 0
6 7 -8 25 0
2 4 -5 7 -23 0
6 7 -26 0
2 4 -5 -7 23 0
2 4 -5 6 22 0
-5 -6 7 8 24 0
-5 -6 7 -8 -24 0
-5 -6 -8 26 0
-5 -6 7 -25 0
2 4 -6 -7 8 -24 0
2 4 -6 -7 -8 24 0
-5 -6 -8 -25 0
2 4 -5 -6 -22 0
-5 13 0
2 4 -5 21 0
4 -12 0
1 3 4 -20 0
5 6 8 -25 0
1 3 5 6 7 -23 0
5 6 -7 8 24 0
5 6 -7 -8 -24 0
1 3 5 6 -7 23 0
5 6 -7 -25 0
1 3 -4 6 -22 0
1 3 -4 7 8 -25 0
1 3 -4 -7 -8 -25 0
1 3 -4 -6 22 0
1 3 -4 5 21 0
-4 -5 6 8 -24 0
-4 -5 6 -8 24 0
-4 -5 6 7 23 0
-4 -5 -7 8 25 0
-4 -5 6 -7 -23 0
1 3 -5 -6 7 -23 0
-4 -5 -7 8 -24 0
-4 -5 -7 -8 24 0
1 3 -5 -6 -7 23 0
1 3 -4 -5 -21 0
-4 12 0
1 3 -4 20 0
3 -11 0
2 3 -19 0
4 5 7 8 -24 0
4 5 7 -8 24 0
4 5 7 -8 25 0
4 5 7 -26 0
2 4 5 6 -22 0
4 5 -6 8 -24 0
2 4 5 7 8 -25 0
4 5 -6 -8 24 0
4 5 -6 7 23 0
2 4 5 -7 -8 -25 0
4 5 -6 -7 -23 0
2 4 5 -6 22 0
2 -3 5 -21 0
2 -3 6 7 8 -24 0
2 -3 6 7 -8 24 0
2 -3 -6 -7 8 -24 0
2 -3 -6 -7 -8 24 0
2 -3 -5 21 0
2 -3 4 20 0
-3 -4 5 7 -23 0
-3 -4 5 -7 23 0
-3 -4 5 6 22 0
-3 -4 -6 7 8 24 0
-3 -4 -6 7 -8 -24 0
-3 -4 -6 -8 26 0
-3 -4 -6 7 -25 0
-3 -4 -6 -8 -25 0
-3 -4 5 -6 -22 0
2 -4 -5 7 8 -25 0
2 -4 -5 -7 -8 -25 0
2 -4 -5 6 -22 0
-3 -4 -6 7 -23 0
-3 -4 -6 -7 23 0
2 -4 -5 -6 22 0
2 -3 -4 -20 0
-3 11 0
2 -3 19 0
2 -10 0
1 2 -18 0
3 4 6 8 -25 0
3 4 6 7 -23 0
3 4 6 -7 8 24 0
3 4 6 -7 -8 -24 0
3 4 6 -7 23 0
3 4 6 -7 -25 0
1 3 4 5 -21 0
1 3 4 6 7 8 -24 0
1 3 4 6 7 -8 24 0
3 4 -5 7 -23 0
3 4 -5 -7 23 0
3 4 -5 6 22 0
1 3 4 -6 -7 8 -24 0
1 3 4 -6 -7 -8 24 0
3 4 -5 -6 -22 0
1 3 4 -5 21 0
1 -2 4 -20 0
1 -2 5 6 7 -23 0
1 -2 5 6 -7 23 0
1 -2 -5 -6 7 -23 0
1 -2 -5 -6 -7 23 0
1 -2 -4 20 0
1 -2 3 19 0
-2 -3 4 6 -22 0
-2 -3 4 7 8 -25 0
-2 -3 4 -7 -8 -25 0
-2 -3 4 -6 22 0
-2 -3 4 5 21 0
-2 -3 -5 6 8 -24 0
-2 -3 -5 6 -8 24 0
-2 -3 -5 6 7 23 0
-2 -3 -5 -7 8 25 0
-2 -3 -5 6 -7 -23 0
-2 -3 -5 -7 8 -24 0
-2 -3 -5 -7 -8 24 0
-2 -3 4 -5 -21 0
1 -3 -4 6 7 8 -24 0
1 -3 -4 6 7 -8 24 0
1 -3 -4 -6 -7 8 -24 0
1 -3 -4 -6 -7 -8 24 0
1 -3 -4 5 -21 0
-2 -3 -5 7 8 -25 0
-2 -3 -5 -7 -8 -25 0
-2 -3 -5 6 -22 0
-2 -3 -5 -6 22 0
1 -3 -4 -5 21 0
1 -2 -3 -19 0
-2 10 0
1 -2 18 0
1 -9 0
1 -17 0
2 3 5 7 8 -24 0
2 3 5 7 -8 24 0
2 3 5 7 -8 25 0
2 3 5 7 -26 0
2 3 5 6 -22 0
2 3 5 -6 8 -24 0
2 3 5 7 8 -25 0
2 3 5 -6 -8 24 0
2 3 5 -6 7 23 0
2 3 5 -7 -8 -25 0
2 3 5 -6 -7 -23 0
2 3 5 -6 22 0
2 3 4 -20 0
2 3 5 6 7 -23 0
2 3 5 6 -7 23 0
2 3 -4 6 -22 0
2 3 -4 7 8 -25 0
2 3 -4 -7 -8 -25 0
2 3 -4 -6 22 0
2 3 -4 5 21 0
2 3 -5 -6 7 -23 0
2 3 -5 -6 -7 23 0
2 3 -4 -5 -21 0
2 3 -4 20 0
-1 3 -19 0
-1 4 5 6 -22 0
-1 4 5 7 8 -25 0
-1 4 5 -7 -8 -25 0
-1 4 5 -6 22 0
-1 -4 -5 7 8 -25 0
-1 -4 -5 -7 -8 -25 0
-1 -4 -5 6 -22 0
-1 -4 -5 -6 22 0
-1 -3 19 0
-1 2 18 0
-1 -2 3 5 -21 0
-1 -2 3 6 7 8 -24 0
-1 -2 3 6 7 -8 24 0
-1 -2 3 -6 -7 8 -24 0
-1 -2 3 -6 -7 -8 24 0
-1 -2 3 -5 21 0
-1 -2 3 4 20 0
-1 -2 -4 5 7 -23 0
-1 -2 -4 5 -7 23 0
-1 -2 -4 5 6 22 0
-1 -2 -4 -6 7 8 24 0
-1 -2 -4 -6 7 -8 -24 0
-1 -2 -4 -6 -8 26 0
-1 -2 -4 -6 7 -25 0
-1 -2 -4 -6 -8 -25 0
-1 -2 -4 5 -6 -22 0
-1 -2 -4 -6 7 -23 0
-1 -2 -4 -6 -7 23 0
-1 -2 3 -4 -20 0
-2 -3 5 6 7 -23 0
-2 -3 5 6 -7 23 0
-2 -3 -5 -6 7 -23 0
-2 -3 -5 -6 -7 23 0
-2 -3 4 -20 0
-1 -2 -4 6 7 8 -24 0
-1 -2 -4 6 7 -8 24 0
-1 -2 -4 -6 -7 8 -24 0
-1 -2 -4 -6 -7 -8 24 0
-1 -2 -4 5 -21 0
-1 -2 -4 -5 21 0
-2 -3 -4 20 0
-1 -2 -18 0
-1 9 0
-1 17 0
